Academic license - for non-commercial use only
Gurobi Optimizer version 9.0.3 build v9.0.3rc0 (mac64)
Optimize a model with 127786 rows, 120480 columns and 691170 nonzeros
Model fingerprint: 0x24f55207
Variable types: 0 continuous, 120480 integer (120480 binary)
Coefficient statistics:
  Matrix range     [1e+00, 1e+00]
  Objective range  [1e+01, 5e+04]
  Bounds range     [1e+00, 1e+00]
  RHS range        [1e+00, 5e+02]
Presolve added 0 rows and 2970 columns
Presolve removed 30 rows and 0 columns
Presolve time: 1.70s
Presolved: 127756 rows, 123450 columns, 520110 nonzeros
Variable types: 0 continuous, 123450 integer (123450 binary)
Found heuristic solution: objective 354493.00000

Concurrent LP optimizer: dual simplex and barrier
Showing barrier log only...

Root barrier log...

Ordering time: 0.03s

Barrier statistics:
 Dense cols : 240
 AA' NZ     : 4.061e+05
 Factor NZ  : 1.637e+06 (roughly 120 MBytes of memory)
 Factor Ops : 2.201e+08 (less than 1 second per iteration)
 Threads    : 3

                  Objective                Residual
Iter       Primal          Dual         Primal    Dual     Compl     Time
   0   1.22774232e+08 -1.72842486e+08  2.70e+02 3.01e+01  1.55e+04     3s
   1   1.16479451e+06 -1.77922322e+08  7.26e+00 1.15e+04  6.81e+02     3s
   2   5.77409607e+05 -1.86633209e+07  1.84e+00 8.32e+02  7.73e+01     4s
   3   3.79196764e+05 -2.19513097e+06  4.18e-02 9.19e+00  7.04e+00     4s
   4   3.58050209e+05 -2.28264840e+05  8.70e-03 2.01e+00  1.58e+00     4s
   5   3.42833202e+05  1.15415552e+05  5.55e-03 6.31e-01  6.12e-01     4s
   6   3.28076420e+05  2.13992678e+05  3.92e-03 2.64e-01  3.07e-01     4s
   7   3.22457206e+05  2.31287897e+05  3.48e-03 1.88e-01  2.45e-01     4s
   8   3.15606814e+05  2.51695503e+05  2.99e-03 9.62e-02  1.72e-01     4s
   9   3.10784218e+05  2.59721684e+05  2.63e-03 5.80e-02  1.37e-01     5s
  10   3.02997237e+05  2.64552809e+05  2.16e-03 3.48e-02  1.03e-01     5s
  11   3.01705466e+05  2.66446458e+05  2.08e-03 2.71e-02  9.45e-02     5s
  12   2.95275273e+05  2.68256990e+05  1.63e-03 1.86e-02  7.24e-02     5s
  13   2.92025416e+05  2.69365838e+05  1.42e-03 1.42e-02  6.07e-02     5s
  14   2.89644199e+05  2.70103007e+05  1.28e-03 1.07e-02  5.23e-02     6s
  15   2.87425974e+05  2.70734615e+05  1.13e-03 7.50e-03  4.47e-02     6s
  16   2.85213167e+05  2.71119654e+05  9.68e-04 6.05e-03  3.77e-02     6s
  17   2.82759662e+05  2.71526612e+05  8.06e-04 4.44e-03  3.01e-02     6s
  18   2.80908807e+05  2.71940369e+05  6.76e-04 3.04e-03  2.40e-02     6s
  19   2.79506636e+05  2.72131352e+05  5.72e-04 2.37e-03  1.97e-02     6s
  20   2.78244276e+05  2.72313709e+05  4.67e-04 1.72e-03  1.59e-02     7s
  21   2.77325936e+05  2.72431068e+05  3.97e-04 1.38e-03  1.31e-02     7s
  22   2.76650574e+05  2.72544667e+05  3.46e-04 1.06e-03  1.10e-02     7s
  23   2.76171818e+05  2.72663957e+05  3.06e-04 7.46e-04  9.38e-03     7s
  24   2.75471043e+05  2.72719577e+05  2.49e-04 5.94e-04  7.36e-03     7s
  25   2.75034677e+05  2.72775449e+05  2.09e-04 4.61e-04  6.04e-03     7s
  26   2.74734028e+05  2.72827113e+05  1.81e-04 3.39e-04  5.10e-03     7s
  27   2.74330018e+05  2.72854590e+05  1.43e-04 2.78e-04  3.94e-03     8s
  28   2.74122827e+05  2.72891560e+05  1.25e-04 2.09e-04  3.29e-03     8s
  29   2.73924993e+05  2.72922899e+05  1.04e-04 1.63e-04  2.68e-03     8s
  30   2.73808328e+05  2.72945071e+05  9.19e-05 1.58e-04  2.31e-03     8s
  31   2.73663551e+05  2.72954584e+05  7.74e-05 1.49e-04  1.89e-03     8s
  32   2.73518940e+05  2.72966575e+05  6.10e-05 9.43e-05  1.47e-03     8s
  33   2.73412677e+05  2.72970754e+05  4.99e-05 9.26e-05  1.18e-03     8s
  34   2.73391911e+05  2.72979510e+05  4.73e-05 7.18e-05  1.10e-03     9s
  35   2.73313974e+05  2.72983681e+05  3.86e-05 5.46e-05  8.81e-04     9s
  36   2.73269176e+05  2.72991382e+05  3.33e-05 4.18e-05  7.41e-04     9s
  37   2.73224608e+05  2.72994041e+05  2.80e-05 4.09e-05  6.15e-04     9s
  38   2.73191549e+05  2.72995827e+05  2.40e-05 3.72e-05  5.22e-04     9s
  39   2.73164843e+05  2.72998529e+05  2.08e-05 2.91e-05  4.43e-04     9s
  40   2.73139651e+05  2.73001339e+05  1.78e-05 2.09e-05  3.69e-04     9s
  41   2.73112700e+05  2.73002085e+05  1.46e-05 1.92e-05  2.95e-04    10s
  42   2.73094979e+05  2.73003614e+05  1.24e-05 1.56e-05  2.43e-04    10s
  43   2.73080525e+05  2.73004369e+05  1.05e-05 1.31e-05  2.03e-04    10s
  44   2.73062827e+05  2.73005420e+05  8.24e-06 8.66e-06  1.53e-04    10s
  45   2.73049215e+05  2.73006128e+05  6.38e-06 7.44e-06  1.15e-04    10s
  46   2.73040631e+05  2.73006862e+05  5.15e-06 6.31e-06  8.99e-05    10s
  47   2.73039501e+05  2.73007160e+05  4.97e-06 5.63e-06  8.61e-05    11s
  48   2.73035973e+05  2.73007512e+05  4.42e-06 4.64e-06  7.57e-05    11s
  49   2.73031132e+05  2.73007830e+05  3.61e-06 3.61e-06  6.20e-05    11s
  50   2.73026317e+05  2.73008287e+05  2.87e-06 2.79e-06  4.80e-05    11s
  51   2.73022663e+05  2.73008527e+05  2.24e-06 1.99e-06  3.76e-05    11s
  52   2.73021994e+05  2.73008583e+05  2.15e-06 1.88e-06  3.57e-05    11s
  53   2.73017627e+05  2.73008763e+05  1.41e-06 1.43e-06  2.36e-05    11s
  54   2.73015140e+05  2.73009049e+05  1.03e-06 8.33e-07  1.62e-05    12s
  55   2.73014286e+05  2.73009132e+05  8.71e-07 6.70e-07  1.37e-05    12s
  56   2.73012356e+05  2.73009271e+05  5.18e-07 3.63e-07  8.20e-06    12s
  57   2.73010715e+05  2.73009453e+05  2.09e-07 9.64e-08  3.36e-06    12s
  58   2.73010129e+05  2.73009472e+05  1.08e-07 4.41e-08  1.75e-06    12s
  59   2.73009889e+05  2.73009507e+05  6.25e-08 1.62e-08  1.02e-06    12s
  60   2.73009592e+05  2.73009524e+05  9.38e-09 7.20e-08  1.82e-07    12s
  61   2.73009583e+05  2.73009528e+05  7.69e-09 5.25e-08  1.46e-07    12s
  62   2.73009564e+05  2.73009537e+05  4.45e-09 2.46e-08  7.22e-08    13s
  63   2.73009560e+05  2.73009537e+05  1.33e-08 1.82e-08  6.03e-08    13s
  64   2.73009560e+05  2.73009537e+05  1.33e-08 1.82e-08  6.02e-08    13s
  65   2.73009560e+05  2.73009537e+05  1.31e-08 2.11e-08  5.98e-08    13s

Barrier solved model in 65 iterations and 12.98 seconds
Optimal objective 2.73009560e+05


Root crossover log...

   37213 DPushes remaining with DInf 0.0000000e+00                13s
       0 DPushes remaining with DInf 0.0000000e+00                14s

     874 PPushes remaining with PInf 0.0000000e+00                14s
       0 PPushes remaining with PInf 0.0000000e+00                14s

  Push phase complete: Pinf 0.0000000e+00, Dinf 1.4505776e-02     14s


Root simplex log...

Iteration    Objective       Primal Inf.    Dual Inf.      Time
    8593    2.7300954e+05   0.000000e+00   1.450577e-02     14s
    8594    2.7300954e+05   0.000000e+00   0.000000e+00     14s

Solved with barrier

Root relaxation: objective 2.730095e+05, 8594 iterations, 11.29 seconds

    Nodes    |    Current Node    |     Objective Bounds      |     Work
 Expl Unexpl |  Obj  Depth IntInf | Incumbent    BestBd   Gap | It/Node Time

     0     0 273009.539    0 17304 354493.000 273009.539  23.0%     -   15s
H    0     0                    308375.00000 273009.539  11.5%     -   17s
     0     0 273009.539    0 17302 308375.000 273009.539  11.5%     -   50s
H    0     0                    308175.00000 273010.468  11.4%     -   57s
H    0     2                    307621.00000 273010.468  11.3%     -   66s
     0     2 273010.468    0 17302 307621.000 273010.468  11.3%     -   66s
     1     4 273251.448    1 17891 307621.000 273010.602  11.3% 16627  134s
     3     8 273424.903    2 17654 307621.000 273251.813  11.2% 23908  281s

Explored 7 nodes (188017 simplex iterations) in 300.08 seconds
Thread count was 8 (of 8 available processors)

Solution count 4: 307621 308175 308375 354493 

Time limit reached
Best objective 3.076210000000e+05, best bound 2.734250000000e+05, gap 11.1163%

User-callback calls 127873, time in user-callback 0.95 sec
Solution written to /Users/mdeboute/Desktop/Etudes/Master/M2/S9/GOPP/Projet/multi-period-flp/solution/instSingle_I30_J500_T8_0_result.txt
